(set-info :smt-lib-version 2.6)
(set-logic QF_BV)
(set-info :source |
Ivan Jager <aij+nospam@andrew.cmu.edu>

|)
(set-info :category "industrial")
(set-info :status unsat)
(declare-fun t_461 () (_ BitVec 1))
(declare-fun t_460 () (_ BitVec 1))
(declare-fun t_459 () (_ BitVec 1))
(declare-fun t_458 () (_ BitVec 1))
(declare-fun t_457 () (_ BitVec 1))
(declare-fun t_456 () (_ BitVec 1))
(declare-fun t_455 () (_ BitVec 1))
(declare-fun t_454 () (_ BitVec 1))
(declare-fun t_453 () (_ BitVec 1))
(declare-fun t_452 () (_ BitVec 1))
(declare-fun t_451 () (_ BitVec 1))
(declare-fun t_450 () (_ BitVec 1))
(declare-fun R_OF_15_213 () (_ BitVec 1))
(declare-fun T_32t0_4423_180 () (_ BitVec 32))
(declare-fun T_32t2_4431_174 () (_ BitVec 32))
(declare-fun R_ESP_1_69 () (_ BitVec 32))
(assert (= (_ bv1 1) (bvand (bvand (ite (= t_450 (bvnot R_OF_15_213)) (_ bv1 1) (_ bv0 1)) (bvand (ite (= t_451 (_ bv1 1)) (_ bv1 1) (_ bv0 1)) (bvand (ite (= t_452 (_ bv0 1)) (_ bv1 1) (_ bv0 1)) (bvand (ite (= t_453 (_ bv0 1)) (_ bv1 1) (_ bv0 1)) (bvand (ite (= t_454 t_452) (_ bv1 1) (_ bv0 1)) (bvand (ite (= t_455 (bvnot (_ bv0 1))) (_ bv1 1) (_ bv0 1)) (bvand (ite (= t_456 (bvor t_453 (bvand t_455 t_454))) (_ bv1 1) (_ bv0 1)) (bvand (ite (= t_457 t_451) (_ bv1 1) (_ bv0 1)) (bvand (ite (= t_458 t_450) (_ bv1 1) (_ bv0 1)) (bvand (ite (= t_459 (ite (= R_OF_15_213 (ite (= (_ bv1 32) (bvand (_ bv1 32) (bvlshr (bvand (bvxor T_32t2_4431_174 (_ bv60 32)) (bvxor T_32t2_4431_174 T_32t0_4423_180)) (_ bv31 32)))) (_ bv1 1) (_ bv0 1))) (_ bv1 1) (_ bv0 1))) (_ bv1 1) (_ bv0 1)) (bvand (ite (= t_460 (ite (= T_32t0_4423_180 (bvsub T_32t2_4431_174 (_ bv60 32))) (_ bv1 1) (_ bv0 1))) (_ bv1 1) (_ bv0 1)) (ite (= t_461 (ite (= T_32t2_4431_174 (bvsub R_ESP_1_69 (_ bv4 32))) (_ bv1 1) (_ bv0 1))) (_ bv1 1) (_ bv0 1))))))))))))) (bvand (bvnot (bvand t_461 (bvand t_460 (bvand t_459 (bvor (bvnot t_450) (bvand t_458 (bvor (bvnot t_451) (bvand t_457 (bvand t_455 (bvnot t_452)))))))))) (bvand (bvand t_461 (bvand t_460 (bvand t_459 (bvand t_458 (bvand t_457 t_456))))) (_ bv1 1))))))
(check-sat)
(exit)
